L=18;
no=10;
njo=[9,9,8,8,8,8,8,9,9,8];
djo=[12,16,14,13,18,18,18,17,12,14];
trab=[6,6,6,3,3,6,6,2,2,6,6,6,6,6,3,6,2,2,6,6,6,2,6,18,3,6,2,3,3,3,2,2,2,4,6,6,3,3,18,12,6,3,4,18,18,3,6,12,6,2,18,4,2,6,4,3,3,12,2,2,3,4,6,12,4,6,3,3,6,12,4,2,3,3,3,6,3,6,6,6,3,2,3,3,12,6,12,2,6,2,6,3,3,12,2,3,2,3,12,2,6,12,6,6,2,12,2,2,18,2,4,2,2,3,2,3,6,3,18,6,6,12,3,3,6,6,2,3,2,6,12,2,3,2,6,2,2,6,2,12,3,3,3,2,12,12,3,3,12,3,3,3];
nprec=20;
prec=[| 6, 16,
      | 8, 18,
      | 14, 21,
      | 16, 23,
      | 21, 31,
      | 22, 32,
      | 23, 33,
      | 28, 38,
      | 29, 41,
      | 32, 42,
      | 42, 44,
      | 43, 51,
      | 44, 53,
      | 46, 56,
      | 48, 57,
      | 52, 61,
      | 60, 69,
      | 63, 74,
      | 70, 80,
      | 76, 82 |];


%%%%%%%%%%%%%%%%%%%%%%%%%%%%%%%%%%%%%%%%%%%%%%%%%%%%%%%%%%%%%%%%%%%%%%
% 10
%
%  9   1   9  12  58
%  6   6   6   3   3   6   6   2   2   6   6   6 
%  1   1   1   0   0
%  1   2   2   0   0
%  1   3   3   0   0
%  1   4   4   0   0
%  1   5   5   0   0
%  1   6   6   0   1
%      2   7  16
%  1   7   7   0   0
%  1   8   8   0   1
%      2   9  18
%  1   9   9   0   0
%
%  9  10  18  16  83
%  6   6   3   6   2   2   6   6   6   2   6  18   3   6   2   3 
%  2   1  10   0   0
%  2   2  11   0   0
%  2   3  12   0   0
%  2   4  13   0   0
%  2   5  14   0   1
%      3   3  21
%  2   6  15   0   0
%  2   7  16   1   1
%      1   6   6
%      3   5  23
%  2   8  17   0   0
%  2   9  18   1   0
%      1   8   8
%
%  8  19  26  14  73
%  3   3   2   2   2   4   6   6   3   3  18  12   6   3 
%  3   1  19   0   0
%  3   2  20   0   0
%  3   3  21   1   1
%      2   5  14
%      4   5  31
%  3   4  22   0   1
%      4   6  32
%  3   5  23   1   1
%      2   7  16
%      4   7  33
%  3   6  24   0   0
%  3   7  25   0   0
%  3   8  26   0   0
%
%  8  27  34  13 103
%  4  18  18   3   6  12   6   2  18   4   2   6   4 
%  4   1  27   0   0
%  4   2  28   0   1
%      5   4  38
%  4   3  29   0   1
%      5   7  41
%  4   4  30   0   0
%  4   5  31   1   0
%      3   3  21
%  4   6  32   1   1
%      3   4  22
%      5   8  42
%  4   7  33   1   0
%      3   5  23
%  4   8  34   0   0
%
%  8  35  42  18  90
%  3   3  12   2   2   3   4   6  12   4   6   3   3   6  12   4   2   3 
%  5   1  35   0   0
%  5   2  36   0   0
%  5   3  37   0   0
%  5   4  38   1   0
%      4   2  28
%  5   5  39   0   0
%  5   6  40   0   0
%  5   7  41   1   0
%      4   3  29
%  5   8  42   1   1
%      4   6  32
%      6   2  44
%
%  8  43  50  18  90
%  3   3   6   3   6   6   6   3   2   3   3  12   6  12   2   6   2   6 
%  6   1  43   0   1
%      7   1  51
%  6   2  44   1   1
%      5   8  42
%      7   3  53
%  6   3  45   0   0
%  6   4  46   0   1
%      7   6  56
%  6   5  47   0   0
%  6   6  48   0   1
%      7   7  57
%  6   7  49   0   0
%  6   8  50   0   0
%
%  8  51  58  18 108
%  3   3  12   2   3   2   3  12   2   6  12   6   6   2  12   2   2  18 
%  7   1  51   1   0
%      6   1  43
%  7   2  52   0   1
%      8   3  61
%  7   3  53   1   0
%      6   2  44
%  7   4  54   0   0
%  7   5  55   0   0
%  7   6  56   1   0
%      6   4  46
%  7   7  57   1   0
%      6   6  48
%  7   8  58   0   0
%
%  9  59  67  17  87
%  2   4   2   2   3   2   3   6   3  18   6   6  12   3   3   6   6 
%  8   1  59   0   0
%  8   2  60   0   1
%      9   2  69
%  8   3  61   1   0
%      7   2  52
%  8   4  62   0   0
%  8   5  63   0   1
%      9   7  74
%  8   6  64   0   0
%  8   7  65   0   0
%  8   8  66   0   0
%  8   9  67   0   0
%
%  9  68  76  12  48
%  2   3   2   6  12   2   3   2   6   2   2   6 
%  9   1  68   0   0
%  9   2  69   1   0
%      8   2  60
%  9   3  70   0   1
%     10   4  80
%  9   4  71   0   0
%  9   5  72   0   0
%  9   6  73   0   0
%  9   7  74   1   0
%      8   5  63
%  9   8  75   0   0
%  9   9  76   0   1
%     10   6  82
%
%  8  77  84  14  76
%  2  12   3   3   3   2  12  12   3   3  12   3   3   3 
% 10   1  77   0   0
% 10   2  78   0   0
% 10   3  79   0   0
% 10   4  80   1   0
%      9   3  70
% 10   5  81   0   0
% 10   6  82   1   0
%      9   9  76
% 10   7  83   0   0
% 10   8  84   0   0
%
%270
